p cnf 37 26
c p distribution  0.875 0.125
c p distribution  0.875 0.125
c p distribution  0.875 0.125
c p distribution  0.875 0.125
c p distribution  0.875 0.125
c p distribution  0.875 0.125
c p distribution  0.875 0.125
c p distribution  0.875 0.125
c p distribution  0.875 0.125
c p distribution  0.875 0.125
c p distribution  0.875 0.125
c p distribution  0.875 0.125
31 0
-26 0
30 -31 -1 0
31 -30 -1 0
30 -31 -3 0
31 -30 -3 0
35 -28 -5 0
28 -35 -5 0
35 -32 -7 0
32 -35 -7 0
29 -31 -9 0
31 -29 -9 0
35 -33 -11 0
33 -35 -11 0
37 -25 -13 0
25 -37 -13 0
30 -34 -15 0
34 -30 -15 0
34 -26 -17 0
26 -34 -17 0
35 -36 -19 0
36 -35 -19 0
37 -30 -21 0
30 -37 -21 0
35 -34 -23 0
34 -35 -23 0

